c generated by sgen
p cnf 49 108
-2 -3 -4 0
-1 -3 -4 0
-1 -2 -4 0
-1 -2 -3 0
-6 -7 -8 0
-5 -7 -8 0
-5 -6 -8 0
-5 -6 -7 0
-10 -11 -12 0
-9 -11 -12 0
-9 -10 -12 0
-9 -10 -11 0
-14 -15 -16 0
-13 -15 -16 0
-13 -14 -16 0
-13 -14 -15 0
-18 -19 -20 0
-17 -19 -20 0
-17 -18 -20 0
-17 -18 -19 0
-22 -23 -24 0
-21 -23 -24 0
-21 -22 -24 0
-21 -22 -23 0
-26 -27 -28 0
-25 -27 -28 0
-25 -26 -28 0
-25 -26 -27 0
-30 -31 -32 0
-29 -31 -32 0
-29 -30 -32 0
-29 -30 -31 0
-34 -35 -36 0
-33 -35 -36 0
-33 -34 -36 0
-33 -34 -35 0
-38 -39 -40 0
-37 -39 -40 0
-37 -38 -40 0
-37 -38 -39 0
-42 -43 -44 0
-41 -43 -44 0
-41 -42 -44 0
-41 -42 -43 0
-45 -46 -47 0
-45 -46 -48 0
-45 -46 -49 0
-45 -47 -48 0
-45 -47 -49 0
-45 -48 -49 0
-46 -47 -48 0
-46 -47 -49 0
-46 -48 -49 0
-47 -48 -49 0
4 34 7 0
25 34 7 0
25 4 7 0
25 4 34 0
42 5 15 0
12 5 15 0
12 42 15 0
12 42 5 0
49 23 1 0
10 23 1 0
10 49 1 0
10 49 23 0
2 40 14 0
31 40 14 0
31 2 14 0
31 2 40 0
9 35 38 0
18 35 38 0
18 9 38 0
18 9 35 0
6 24 39 0
43 24 39 0
43 6 39 0
43 6 24 0
19 3 48 0
44 3 48 0
44 19 48 0
44 19 3 0
33 21 13 0
46 21 13 0
46 33 13 0
46 33 21 0
20 16 26 0
22 16 26 0
22 20 26 0
22 20 16 0
36 32 28 0
41 32 28 0
41 36 28 0
41 36 32 0
30 8 17 0
45 8 17 0
45 30 17 0
45 30 8 0
29 37 11 0
29 37 47 0
29 37 27 0
29 11 47 0
29 11 27 0
29 47 27 0
37 11 47 0
37 11 27 0
37 47 27 0
11 47 27 0
